12° run output:
{
    "Function": "euclidB500.tsp",
    "Problem dimension": [
        290,
        204,
        314,
        440,
        58,
        80,
        265,
        402,
        334,
        92,
        174,
        332,
        131,
        158,
        67,
        451,
        47,
        248,
        344,
        87,
        356,
        385,
        479,
        372,
        121,
        292,
        37,
        146,
        496,
        342,
        154,
        212,
        428,
        205,
        392,
        184,
        138,
        183,
        276,
        115,
        373,
        408,
        453,
        12,
        343,
        68,
        0,
        298,
        190,
        386,
        277,
        446,
        459,
        436,
        147,
        348,
        358,
        367,
        165,
        122,
        461,
        274,
        94,
        42,
        120,
        176,
        241,
        283,
        224,
        65,
        227,
        357,
        117,
        197,
        230,
        179,
        54,
        384,
        280,
        240,
        267,
        282,
        74,
        118,
        6,
        278,
        52,
        153,
        215,
        271,
        116,
        288,
        465,
        316,
        419,
        57,
        394,
        492,
        443,
        21,
        414,
        220,
        168,
        88,
        307,
        29,
        226,
        387,
        127,
        210,
        11,
        474,
        166,
        234,
        70,
        347,
        485,
        208,
        442,
        164,
        295,
        399,
        447,
        130,
        407,
        53,
        101,
        433,
        14,
        40,
        26,
        156,
        320,
        140,
        25,
        225,
        349,
        410,
        444,
        251,
        493,
        452,
        22,
        106,
        3,
        124,
        32,
        24,
        200,
        180,
        435,
        238,
        296,
        44,
        406,
        62,
        264,
        323,
        483,
        48,
        169,
        370,
        90,
        286,
        260,
        148,
        460,
        59,
        471,
        396,
        76,
        449,
        16,
        221,
        400,
        173,
        297,
        289,
        338,
        157,
        486,
        383,
        351,
        71,
        275,
        397,
        339,
        403,
        27,
        374,
        152,
        362,
        337,
        211,
        340,
        85,
        345,
        100,
        382,
        466,
        299,
        454,
        491,
        353,
        469,
        488,
        272,
        172,
        119,
        113,
        136,
        235,
        63,
        438,
        341,
        66,
        417,
        192,
        1,
        270,
        499,
        60,
        50,
        300,
        185,
        346,
        329,
        203,
        95,
        108,
        404,
        294,
        109,
        284,
        494,
        114,
        242,
        188,
        331,
        112,
        55,
        99,
        361,
        19,
        255,
        45,
        219,
        369,
        9,
        161,
        93,
        102,
        181,
        111,
        259,
        182,
        133,
        209,
        110,
        365,
        405,
        432,
        193,
        97,
        155,
        448,
        79,
        150,
        38,
        421,
        312,
        228,
        487,
        434,
        36,
        223,
        458,
        81,
        13,
        218,
        490,
        257,
        318,
        481,
        253,
        237,
        149,
        23,
        375,
        308,
        96,
        482,
        301,
        467,
        233,
        145,
        393,
        8,
        473,
        64,
        191,
        416,
        199,
        229,
        34,
        17,
        33,
        430,
        195,
        310,
        401,
        134,
        51,
        2,
        327,
        123,
        41,
        20,
        409,
        359,
        246,
        391,
        89,
        366,
        317,
        422,
        75,
        360,
        31,
        398,
        139,
        61,
        321,
        489,
        313,
        78,
        293,
        178,
        371,
        129,
        287,
        445,
        319,
        457,
        352,
        126,
        56,
        128,
        305,
        426,
        213,
        243,
        236,
        135,
        207,
        322,
        472,
        389,
        268,
        187,
        423,
        30,
        412,
        269,
        468,
        390,
        429,
        326,
        104,
        377,
        462,
        244,
        325,
        285,
        49,
        424,
        162,
        475,
        201,
        83,
        498,
        431,
        413,
        291,
        239,
        350,
        388,
        364,
        231,
        198,
        263,
        281,
        84,
        143,
        217,
        196,
        480,
        439,
        69,
        15,
        368,
        35,
        309,
        273,
        335,
        330,
        141,
        159,
        333,
        304,
        495,
        324,
        254,
        142,
        247,
        144,
        328,
        418,
        470,
        5,
        437,
        355,
        98,
        86,
        478,
        464,
        4,
        381,
        262,
        363,
        214,
        107,
        202,
        252,
        376,
        302,
        415,
        163,
        10,
        72,
        354,
        279,
        132,
        39,
        456,
        171,
        336,
        125,
        222,
        77,
        258,
        189,
        379,
        427,
        160,
        18,
        256,
        411,
        137,
        82,
        463,
        477,
        46,
        315,
        303,
        232,
        7,
        380,
        261,
        450,
        441,
        455,
        216,
        420,
        175,
        170,
        103,
        266,
        311,
        425,
        91,
        177,
        206,
        186,
        250,
        194,
        249,
        167,
        497,
        73,
        43,
        484,
        151,
        245,
        28,
        395,
        476,
        306,
        105,
        378
    ],
    "Global Optimum": 0,
    "Algorithm": "Genetic algorithm",
    "Parameters": {
        "population": 30,
        "offspring": 30,
        "mutation probability": 0.002,
        "crossover probability": 0.9
    },
    "Fitness": 529244,
    "Solution": [
        290,
        204,
        314,
        440,
        58,
        80,
        265,
        402,
        334,
        92,
        174,
        332,
        131,
        158,
        67,
        451,
        47,
        248,
        344,
        87,
        356,
        385,
        479,
        372,
        121,
        292,
        37,
        146,
        496,
        342,
        154,
        212,
        428,
        205,
        392,
        184,
        138,
        183,
        276,
        115,
        373,
        408,
        453,
        12,
        343,
        68,
        0,
        298,
        190,
        386,
        277,
        446,
        459,
        436,
        147,
        348,
        358,
        367,
        165,
        122,
        461,
        274,
        94,
        42,
        120,
        176,
        241,
        283,
        224,
        65,
        227,
        357,
        117,
        197,
        230,
        179,
        54,
        384,
        280,
        240,
        267,
        282,
        74,
        118,
        6,
        278,
        52,
        153,
        215,
        271,
        116,
        288,
        465,
        316,
        419,
        57,
        394,
        492,
        443,
        21,
        414,
        220,
        168,
        88,
        307,
        29,
        226,
        387,
        127,
        210,
        11,
        474,
        166,
        234,
        70,
        347,
        485,
        208,
        442,
        164,
        295,
        399,
        447,
        130,
        407,
        53,
        101,
        433,
        14,
        40,
        26,
        156,
        320,
        140,
        25,
        225,
        349,
        410,
        444,
        251,
        493,
        452,
        22,
        106,
        3,
        124,
        32,
        24,
        200,
        180,
        435,
        238,
        296,
        44,
        406,
        62,
        264,
        323,
        483,
        48,
        169,
        370,
        90,
        286,
        260,
        148,
        460,
        59,
        471,
        396,
        76,
        449,
        16,
        221,
        400,
        173,
        297,
        289,
        338,
        157,
        486,
        383,
        351,
        71,
        275,
        397,
        339,
        403,
        27,
        374,
        152,
        362,
        337,
        211,
        340,
        85,
        345,
        100,
        382,
        466,
        299,
        454,
        491,
        353,
        469,
        488,
        272,
        172,
        119,
        113,
        136,
        235,
        63,
        438,
        341,
        66,
        417,
        192,
        1,
        270,
        499,
        60,
        50,
        300,
        185,
        346,
        329,
        203,
        95,
        108,
        404,
        294,
        109,
        284,
        494,
        114,
        242,
        188,
        331,
        112,
        55,
        99,
        361,
        19,
        255,
        45,
        219,
        369,
        9,
        161,
        93,
        102,
        181,
        111,
        259,
        182,
        133,
        209,
        110,
        365,
        405,
        432,
        193,
        97,
        155,
        448,
        79,
        150,
        38,
        421,
        312,
        228,
        487,
        434,
        36,
        223,
        458,
        81,
        13,
        218,
        490,
        257,
        318,
        481,
        253,
        237,
        149,
        23,
        375,
        308,
        96,
        482,
        301,
        467,
        233,
        145,
        393,
        8,
        473,
        64,
        191,
        416,
        199,
        229,
        34,
        17,
        33,
        430,
        195,
        310,
        401,
        134,
        51,
        2,
        327,
        123,
        41,
        20,
        409,
        359,
        246,
        391,
        89,
        366,
        317,
        422,
        75,
        360,
        31,
        398,
        139,
        61,
        321,
        489,
        313,
        78,
        293,
        178,
        371,
        129,
        287,
        445,
        319,
        457,
        352,
        126,
        56,
        128,
        305,
        426,
        213,
        243,
        236,
        135,
        207,
        322,
        472,
        389,
        268,
        187,
        423,
        30,
        412,
        269,
        468,
        390,
        429,
        326,
        104,
        377,
        462,
        244,
        325,
        285,
        49,
        424,
        162,
        475,
        201,
        83,
        498,
        431,
        413,
        291,
        239,
        350,
        388,
        364,
        231,
        198,
        263,
        281,
        84,
        143,
        217,
        196,
        480,
        439,
        69,
        15,
        368,
        35,
        309,
        273,
        335,
        330,
        141,
        159,
        333,
        304,
        495,
        324,
        254,
        142,
        247,
        144,
        328,
        418,
        470,
        5,
        437,
        355,
        98,
        86,
        478,
        464,
        4,
        381,
        262,
        363,
        214,
        107,
        202,
        252,
        376,
        302,
        415,
        163,
        10,
        72,
        354,
        279,
        132,
        39,
        456,
        171,
        336,
        125,
        222,
        77,
        258,
        189,
        379,
        427,
        160,
        18,
        256,
        411,
        137,
        82,
        463,
        477,
        46,
        315,
        303,
        232,
        7,
        380,
        261,
        450,
        441,
        455,
        216,
        420,
        175,
        170,
        103,
        266,
        311,
        425,
        91,
        177,
        206,
        186,
        250,
        194,
        249,
        167,
        497,
        73,
        43,
        484,
        151,
        245,
        28,
        395,
        476,
        306,
        105,
        378
    ],
    "Nb of functions evaluations": 400020,
    "Computational time in seconds": 1802.1317632198334,
    "Stopping criterion in evaluations": 400000
}